VALUE 23831
1 104
1 73
2 104
3 59
4 33
5 32
5 18
5 19
5 52
6 51
6 7
6 42
7 55
7 43
8 18
8 21
9 38
9 90
10 70
11 35
11 71
12 64
12 74
13 20
13 45
15 73
15 31
16 20
17 66
17 76
18 64
18 48
18 57
18 42
19 33
21 37
22 76
23 33
23 34
23 38
25 33
26 49
26 58
27 45
27 31
28 58
29 75
30 53
33 61
34 65
35 48
35 46
36 80
39 48
39 59
40 67
40 44
41 74
42 79
44 55
44 62
45 78
47 70
49 200
50 200
53 69
53 74
54 90
56 80
57 77
58 76
60 74
62 80
63 74
64 73
65 76
67 70
68 75
73 75
139 39
139 14
151 24
151 72
200 72